NAME : rnd18_20.tsp
TYPE : TSP
DIMENSION : 20
EDGE_WEIGHT_TYPE : EUC_2D
NODE_COORD_SECTION
1 375 939
2 871 710
3 588 706
4 72 735
5 601 133
6 379 710
7 587 879
8 443 801
9 564 674
10 939 623
11 227 14
12 572 318
13 261 603
14 558 237
15 966 874
16 498 654
17 376 582
18 387 302
19 942 775
20 852 971
